30	3	3
7	8	9	92	93	46	
0	0	0	0	10	1	6	2	3	8	29	2	3	4	5	6	7	8	9	10	11	12	13	14	15	16	17	18	19	20	21	22	23	24	25	26	27	28	29	30
4	1	3	3	8	7	10	7	8	1	1	30
2	1	1	1	2	6	1	1	3	5	1	30
4	2	3	3	9	6	8	1	2	10	1	14
3	5	2	3	3	9	2	10	1	9	1	30
3	2	3	1	1	1	10	6	2	2	1	30
3	3	2	2	4	10	9	4	6	6	1	23
3	2	2	3	5	7	1	6	8	4	1	15
2	1	2	1	10	6	9	8	7	1	1	30
4	2	1	3	8	9	10	9	9	10	1	30
3	3	3	1	8	10	10	7	5	2	1	30
3	2	2	2	9	9	1	7	3	7	2	13	23
4	2	2	1	3	8	4	4	3	1	1	30
2	2	1	2	7	3	7	6	10	3	1	26
2	2	1	3	6	8	2	5	6	10	1	30
3	2	2	1	5	4	9	5	1	4	1	30
4	3	1	3	6	9	3	7	5	5	1	30
3	3	1	2	4	8	2	7	1	5	1	30
4	2	1	1	7	7	7	4	2	7	1	30
3	4	3	1	7	8	4	8	3	10	1	22
3	3	3	3	7	7	3	6	1	3	1	23
4	3	2	1	9	7	1	2	4	6	1	23
4	3	1	3	6	7	3	8	3	4	1	25
2	3	3	2	2	10	1	9	4	2	1	30
3	3	1	1	5	10	10	8	7	2	1	30
4	4	3	1	7	4	8	10	10	9	1	28
2	4	1	3	3	8	6	3	10	10	1	30
3	2	1	3	9	5	6	2	3	9	1	30
1	5	1	1	5	5	9	5	3	2	1	30
0	0	0	0	7	8	2	7	5	9	0
